32      1       
15      
0       0       3       2       3       4       
6       0       3       13      16      20      
6       0       3       5       7       8       
8       2       1       30      
7       7       1       6       
7       7       2       12      14      
3       10      2       11      18      
4       0       3       9       10      15      
9       0       3       14      22      25      
3       3       1       11      
1       0       1       28      
1       0       3       18      19      21      
4       0       1       17      
10      4       2       30      31      
1       7       1       21      
10      0       1       23      
9       0       1       29      
4       5       1       26      
10      0       2       27      28      
5       0       1       21      
8       1       1       23      
3       0       2       23      26      
3       6       1       24      
1       0       1       28      
10      6       1       31      
7       4       1       29      
2       2       1       31      
10      0       1       30      
7       2       1       32      
6       2       1       32      
1       0       1       32      
0       0       0       